/* Objective function */

max: 10.25X1 + 13.3X2 + 7.51X3 + 9.2X4 + 11.7X5 + 17X6 + 29.3X7 + 25X8;

/* Constraints */

40X1 + 50X2 + 80X3 + 60X4 + 45X5 + 60X6 + 30X7 + 25X8 <= 2500000;
40 X1 + 50 X2 + 80 X3 <=1000000;
60 X4 + 45 X5 + 60 X6 <=1000000;
30 X7 + 25 X8 <=1000000;

/* Investment Requirements */ 

40X1 >= 100000;
50X2 >= 100000;
80X3 >= 100000;
60X4 >= 100000;
45X5 >= 100000;
60X6 >= 100000;
30X7 >= 100000;
25X8 >= 100000;

sec X1, X2, X3, X4, X5, X6, X7, X8;